NAME : mcpfd
COMMENT : file for mcpfd test
TYPE : ATSP
DIMENSION : 20
EDGE_WEIGHT_TYPE : EXPLICIT
EDGE_WEIGHT_FORMAT : FULL_MATRIX
EDGE_WEIGHT_SECTION
999999 999999 999999 999999 999999 31 12 36 23 9 19 10 6 29 10 38 24 14 3 23 
999999 999999 999999 999999 999999 38 15 43 26 26 2 17 11 26 15 25 7 29 16 22 
999999 999999 999999 999999 999999 11 32 16 19 21 29 30 24 25 12 34 28 12 23 19 
999999 999999 999999 999999 999999 24 21 29 12 28 14 21 15 14 9 21 11 27 20 8 
999999 999999 999999 999999 999999 10 33 15 18 22 30 31 25 24 13 33 27 13 24 18 
999999 999999 999999 999999 999999 0 43 5 16 32 38 41 35 20 23 27 35 23 34 20 
999999 999999 999999 999999 999999 43 0 48 33 21 17 2 8 33 20 40 22 26 11 29 
999999 999999 999999 999999 999999 5 48 0 19 37 43 46 40 23 28 30 40 26 39 23 
999999 999999 999999 999999 999999 16 33 19 0 32 26 33 27 6 15 15 23 31 26 4 
999999 999999 999999 999999 999999 32 21 37 32 0 28 19 15 38 19 47 33 13 10 32 
999999 999999 999999 999999 999999 38 17 43 26 28 0 19 13 26 17 25 7 31 18 22 
999999 999999 999999 999999 999999 41 2 46 33 19 19 0 6 33 18 40 24 24 9 29 
999999 999999 999999 999999 999999 35 8 40 27 15 13 6 0 27 12 34 18 18 5 23 
999999 999999 999999 999999 999999 20 33 23 6 38 26 33 27 0 19 9 23 37 30 6 
999999 999999 999999 999999 999999 23 20 28 15 19 17 18 12 19 0 28 20 18 11 13 
0 0 0 0 0 999999 999999 999999 999999 999999 999999 999999 999999 999999 999999 999999 999999 999999 999999 999999 
0 0 0 0 0 999999 999999 999999 999999 999999 999999 999999 999999 999999 999999 999999 999999 999999 999999 999999 
0 0 0 0 0 999999 999999 999999 999999 999999 999999 999999 999999 999999 999999 999999 999999 999999 999999 999999 
0 0 0 0 0 999999 999999 999999 999999 999999 999999 999999 999999 999999 999999 999999 999999 999999 999999 999999 
0 0 0 0 0 999999 999999 999999 999999 999999 999999 999999 999999 999999 999999 999999 999999 999999 999999 999999 
